MST01
Position Depot: Center
Horizon for Depot: Small
Position of customers: Mixt
Distribution of the demand: Medium
Width of time windows: Tight
Distribution of the service: Large

VEHICLE 
NUMBER 	 CAPACITY 
 10 	 	 108 
 
CUSTOMER
CUST NO. 	 XCOORD.  	 YCOORD. 	 DEMAND 	 READY TIME 	 DUE DATE 	 SERVICE TIME 
 0 	 	 500 	 	 500 	 	 0 	 	 0 	 	 2250 	 	 0 
  1 	 	 332 	 	 808 	 	 71 	 	 221 	 	 385 	 	 132 
  2 	 	 502 	 	 674 	 	 5 	 	 1192 	 	 1296 	 	 126 
  3 	 	 89 	 	 383 	 	 3 	 	 1290 	 	 1439 	 	 106 
  4 	 	 22 	 	 717 	 	 4 	 	 1843 	 	 1896 	 	 151 
  5 	 	 268 	 	 790 	 	 9 	 	 1400 	 	 1543 	 	 139 
  6 	 	 191 	 	 850 	 	 10 	 	 882 	 	 1012 	 	 165 
  7 	 	 90 	 	 778 	 	 6 	 	 1616 	 	 1746 	 	 132 
  8 	 	 509 	 	 650 	 	 10 	 	 1069 	 	 1153 	 	 154 
  9 	 	 359 	 	 774 	 	 5 	 	 2062 	 	 2218 	 	 113 
  10 	 	 295 	 	 772 	 	 5 	 	 179 	 	 374 	 	 169 
  11 	 	 323 	 	 803 	 	 4 	 	 192 	 	 386 	 	 130 
  12 	 	 294 	 	 779 	 	 1 	 	 289 	 	 389 	 	 141 
  13 	 	 492 	 	 627 	 	 84 	 	 274 	 	 431 	 	 162 
  14 	 	 377 	 	 954 	 	 1 	 	 741 	 	 872 	 	 197 
  15 	 	 7 	 	 682 	 	 2 	 	 528 	 	 578 	 	 153 
  16 	 	 520 	 	 611 	 	 7 	 	 1432 	 	 1577 	 	 145 
  17 	 	 61 	 	 756 	 	 1 	 	 502 	 	 559 	 	 156 
  18 	 	 571 	 	 757 	 	 1 	 	 1895 	 	 1949 	 	 144 
  19 	 	 9 	 	 742 	 	 5 	 	 702 	 	 892 	 	 171 
  20 	 	 549 	 	 629 	 	 10 	 	 2098 	 	 2250 	 	 156 
  21 	 	 505 	 	 683 	 	 3 	 	 1149 	 	 1286 	 	 156 
  22 	 	 58 	 	 790 	 	 82 	 	 1545 	 	 1679 	 	 178 
  23 	 	 642 	 	 716 	 	 4 	 	 1825 	 	 1969 	 	 182 
  24 	 	 631 	 	 833 	 	 2 	 	 696 	 	 865 	 	 152 
  25 	 	 509 	 	 722 	 	 91 	 	 202 	 	 311 	 	 195 
  26 	 	 45 	 	 334 	 	 9 	 	 1223 	 	 1329 	 	 191 
  27 	 	 530 	 	 620 	 	 6 	 	 1071 	 	 1254 	 	 163 
  28 	 	 69 	 	 634 	 	 51 	 	 980 	 	 1089 	 	 165 
  29 	 	 427 	 	 502 	 	 9 	 	 1208 	 	 1360 	 	 124 
  30 	 	 675 	 	 966 	 	 1 	 	 675 	 	 834 	 	 102 
  31 	 	 840 	 	 638 	 	 99 	 	 280 	 	 403 	 	 169 
  32 	 	 125 	 	 173 	 	 9 	 	 444 	 	 547 	 	 104 
  33 	 	 582 	 	 705 	 	 9 	 	 180 	 	 242 	 	 146 
  34 	 	 613 	 	 165 	 	 10 	 	 284 	 	 388 	 	 176 
  35 	 	 423 	 	 204 	 	 4 	 	 355 	 	 510 	 	 156 
  36 	 	 144 	 	 32 	 	 2 	 	 1612 	 	 1721 	 	 191 
  37 	 	 424 	 	 979 	 	 1 	 	 1747 	 	 1927 	 	 135 
  38 	 	 824 	 	 811 	 	 6 	 	 1462 	 	 1639 	 	 117 
  39 	 	 427 	 	 729 	 	 4 	 	 1469 	 	 1640 	 	 107 
  40 	 	 863 	 	 68 	 	 9 	 	 1220 	 	 1337 	 	 139 
  41 	 	 824 	 	 392 	 	 7 	 	 863 	 	 1054 	 	 185 
  42 	 	 331 	 	 591 	 	 3 	 	 565 	 	 740 	 	 200 
  43 	 	 556 	 	 264 	 	 7 	 	 1735 	 	 1831 	 	 181 
  44 	 	 224 	 	 434 	 	 9 	 	 194 	 	 312 	 	 138 
  45 	 	 131 	 	 608 	 	 4 	 	 1976 	 	 2169 	 	 147 
  46 	 	 448 	 	 11 	 	 57 	 	 1331 	 	 1427 	 	 105 
  47 	 	 401 	 	 414 	 	 9 	 	 82 	 	 144 	 	 152 
  48 	 	 670 	 	 957 	 	 3 	 	 512 	 	 579 	 	 178 
  49 	 	 615 	 	 802 	 	 6 	 	 1726 	 	 1846 	 	 125 
  50 	 	 475 	 	 104 	 	 3 	 	 2084 	 	 2151 	 	 190 
 